22
NoName  0.000000
C -4.8361  2.1815  0.0024
C -3.6391  1.4740  0.0027
C -3.6565  0.0830  0.0011
C -4.8682 -0.5988 -0.0009
C -6.0643  0.1098 -0.0012
C -6.0480  1.5001  0.0004
H -4.8253  3.1815  0.0036
H -2.7965 -0.4272  0.0013
H -4.8794 -1.5988 -0.0020
H -6.9360 -0.3802 -0.0027
H -6.9082  2.0101  0.0001
C -2.3301  2.2208  0.0048
C -1.1484  1.2292  0.0009
H -2.2786  2.7985 -0.8098
H -2.2779  2.7927  0.8235
C  0.1788  2.0083  0.0057
H -1.1973  0.6501  0.8147
H -1.1960  0.6581 -0.8186
O  1.2713  1.0856  0.0007
H  0.2282  2.5880 -0.8076
H  0.2278  2.5786  0.8257
H  1.2183  0.5079  0.8028
