10
C4H8
 C                 -1.62462903   -0.10385757    0.00000000
 C                 -0.29871303   -0.10385757    0.00000000
 H                 -2.21821403    0.82018043    0.00000000
 H                 -2.21824503   -1.02787157   -0.00002200
 H                  0.29487197   -1.02789557   -0.00001900
 C                  0.53366370    1.19180790    0.00003646
 C                  1.85957969    1.19176075    0.00003646
 H                 -0.05991945    2.11584300    0.00008446
 H                  2.45319755    2.11577764    0.00008146
 H                  2.45316284    0.26772564   -0.00001554


