  14
  C7H7
  C       1.449102       0.697865      0.000000
  C       1.449115      -0.697864      0.000000
  C       0.357876      -1.568068      0.000000
  C      -1.002836      -1.257518      0.000000
  C      -1.608402      -0.000039      0.000000
  C      -1.002783       1.257531      0.000000
  C       0.357921       1.568095      0.000000
  H      -1.677890      -2.104056      0.000000
  H       0.598833      -2.623654      0.000000
  H       2.424592      -1.167633      0.000000
  H       2.424631       1.167616      0.000000
  H      -2.691093       0.000034      0.000000
  H      -1.677879       2.103973      0.000000
  H       0.598890       2.623680      0.000000
