CONTCAR\(2)
1.0
       17.5240001678         0.0000000000         0.0000000000
        0.0000000000        13.0900001526         0.0000000000
       -1.5262441210         0.0000000000        10.7279767185
    H    C    N    O   Fe
   36   56   24   30   12
Direct
     0.756939990         0.316470006         0.442699992
     0.841180057         0.296959990         0.087439998
     0.735640015         0.409760008         0.987700000
     0.260770001         0.815749979         0.446900017
     0.338730003         0.803189964         0.086520002
     0.229530016         0.913640020         0.992260010
     0.236359989         0.320999996         0.045559999
     0.157540007         0.303530016         0.405710007
     0.263289991         0.419160002         0.499590015
     0.745509967         0.813030003         0.049710004
     0.649669966         0.810259976         0.395499989
     0.756370004         0.920580058         0.498420011
     0.228420018         0.688630002         0.551030002
     0.148000005         0.705800001         0.909500048
     0.254479990         0.592119984         0.006330000
     0.739200019         0.180319995         0.535849986
     0.642939950         0.183769997         0.881870012
     0.750619986         0.074289999         0.986740012
     0.773159995         0.683560010         0.969129979
     0.857960015         0.703369989         0.614460016
     0.751950017         0.590129981         0.513100031
     0.256549994         0.180220001         0.957849965
     0.344360002         0.193409994         0.604920052
     0.235730011         0.085310001         0.502420020
     0.043469998         0.782369994         0.368690020
     0.975159921         0.804160031         0.442539979
     0.533119977         0.353680024         0.158580002
     0.455420004         0.287509999         0.138669996
     0.032129998         0.191919996         0.592840018
     0.991299978         0.172960000         0.712690017
     0.962639954         0.176369987         0.939959999
     0.042330002         0.227489990         0.931330063
     0.533120010         0.677330018         0.590990003
     0.488700025         0.661609983         0.708239972
     0.463519995         0.658100039         0.930690012
     0.531539988         0.732580035         0.914010009
     0.753000040         0.336730012         0.344620003
     0.805909948         0.298029996         0.270429994
     0.798899975         0.327260004         0.142480001
     0.740429977         0.390100001         0.086129999
     0.686320023         0.426560012         0.159970002
     0.692949988         0.401489998         0.288550001
     0.868889998         0.220300003         0.319740010
     0.253609996         0.836859985         0.348780003
     0.305340001         0.800790042         0.270580006
     0.296629981         0.831320005         0.143250007
     0.236370012         0.892459999         0.090400002
     0.182989992         0.925170008         0.167440000
     0.191750006         0.900119992         0.296479991
     0.368250002         0.723380029         0.314340000
     0.240750014         0.343790007         0.142959995
     0.189950007         0.303840014         0.220900004
     0.198249994         0.334659978         0.348340012
     0.256630010         0.399050005         0.401049989
     0.309210023         0.435429984         0.324400005
     0.300740012         0.410969987         0.195070002
     0.128189994         0.222970000         0.178680001
     0.748179986         0.835180018         0.147019998
     0.691719973         0.801900063         0.218430007
     0.695550025         0.835199980         0.344309978
     0.754689976         0.896130006         0.401970019
     0.812770025         0.925890035         0.332029994
     0.809120016         0.897719997         0.204540005
     0.627870034         0.725920052         0.170619999
     0.233840001         0.667440000         0.648940022
     0.182689991         0.705330012         0.725960013
     0.190010003         0.675629942         0.853860036
     0.248899986         0.612969971         0.908089979
     0.302190003         0.577920036         0.831860051
     0.293769973         0.602649998         0.702469999
     0.122189994         0.784120048         0.679760002
     0.741140015         0.156610005         0.632279977
     0.686139988         0.190330005         0.705229997
     0.688730006         0.157579999         0.831159995
     0.747759987         0.097380000         0.889630012
     0.805490026         0.068520001         0.818349991
     0.801080014         0.093950006         0.690219995
     0.625549979         0.268189990         0.657419990
     0.767799981         0.664049976         0.870870020
     0.820559933         0.701560048         0.795669953
     0.815019986         0.672970000         0.667879984
     0.756749977         0.611029983         0.611109970
     0.702299962         0.577200008         0.685540020
     0.706989980         0.601360024         0.814150010
     0.881450020         0.780639974         0.840540035
     0.252260001         0.160280012         0.859700059
     0.305809986         0.196190002         0.785379973
     0.300080005         0.166119992         0.657869982
     0.240319991         0.106289997         0.600460006
     0.184660004         0.074299998         0.673690005
     0.191300009         0.098279998         0.802889997
     0.368569983         0.272830008         0.830799966
     0.621320033         0.485929989         0.131769999
     0.589580029         0.496019994         0.237780001
     0.631519978         0.448589997         0.334080003
     0.117139992         0.981900005         0.140829991
     0.086919996         0.991170025         0.248160010
     0.130240000         0.945330056         0.344799995
     0.375739995         0.490739997         0.352169985
     0.406729991         0.499559991         0.245810000
     0.363629981         0.454400016         0.148410009
     0.878120010         0.983680003         0.363470002
     0.911859989         0.991969975         0.260070008
     0.872959969         0.942349988         0.162350004
     0.367540014         0.519640044         0.857159944
     0.395260004         0.507770005         0.748700057
     0.353739994         0.555480021         0.653830014
     0.872660005         0.016950000         0.851910013
     0.907340027         0.009830000         0.749890019
     0.865749966         0.052709999         0.649179997
     0.637610039         0.520219972         0.653639999
     0.604529998         0.508199996         0.755909968
     0.643049974         0.555450005         0.854960035
     0.118169995         0.019770000         0.643019992
     0.085810002         0.011050000         0.748529999
     0.128379998         0.054680003         0.847430009
     0.866240035         0.182069994         0.427639986
     0.918079985         0.197209993         0.246960003
     0.476319978         0.447380018         0.571319983
     0.367350014         0.684349979         0.422729992
     0.415850015         0.700779988         0.238440009
     0.983020004         0.944029955         0.580670021
     0.125379991         0.186430012         0.067059999
     0.084790004         0.195290004         0.257620012
     0.513059950         0.453940008         0.913400004
     0.627150017         0.689780021         0.059640005
     0.580649959         0.700840020         0.245079986
     0.015060007         0.939329995         0.925190015
     0.121969996         0.819640008         0.568990018
     0.077320000         0.811659962         0.756980009
     0.511890036         0.575609980         0.413569970
     0.627489974         0.308990001         0.549980007
     0.576840027         0.291229985         0.729749961
     0.014290001         0.063929997         0.425750012
     0.885299976         0.814400045         0.952729999
     0.922060058         0.810430020         0.758200018
     0.482799994         0.562850014         0.069619999
     0.364789989         0.320970016         0.932910012
     0.419769996         0.287609993         0.759989939
     0.981520039         0.068570002         0.084000000
     0.003859998         0.832759987         0.379529999
     0.491039984         0.332779986         0.095320001
     0.982799997         0.177349998         0.620789990
     0.004549996         0.179020003         0.888289993
     0.482169988         0.670930055         0.616739976
     0.503479992         0.672860061         0.876789961
     0.562319981         0.452900000         0.490909987
     0.066859997         0.945810026         0.497800005
     0.428280020         0.444539978         0.999370001
     0.933909949         0.948649994         0.013190001
     0.426639997         0.566250020         0.495929989
     0.928730001         0.060800002         0.507210003
     0.571750030         0.560630008         0.990750022
     0.066489995         0.057020002         0.997969978
     0.496050008         0.406120017         0.745310008
     0.998499950         0.922490030         0.752410043
     0.496270004         0.589099991         0.241260013
     0.999589994         0.083080004         0.255970013
