20

C         -0.71385       -0.00125        0.66770
C          0.71144       -0.00110        0.66863
C          0.74344       -0.00005       -0.66790
C         -0.73714       -0.00187       -0.66858
C         -1.78542        0.00541        1.72346
C         -1.79145       -0.00332       -1.71767
C          1.78384        0.00807       -1.72749
C          1.79249       -0.00709        1.71722
H         -2.81859        0.00160       -1.26129
H         -1.66727       -0.90193       -2.35152
H         -1.66189        0.91008       -2.36293
H          1.65266       -0.90419       -2.33419
H          2.79750        0.01667       -1.26192
H          1.67057        0.92102       -2.34643
H          2.80151       -0.00615        1.27599
H          1.66693        0.90942        2.35499
H          1.68020       -0.91797        2.35290
H         -2.78553        0.00641        1.26317
H         -1.68780        0.89400        2.36709
H         -1.68816       -0.91449        2.35937
